/*********************************************
 * OPL 12.6.0.0 Data
 * Author: cholda
 * Creation Date: 7 Nov 2014 at 12:57:12
 *********************************************/

 n = 5;
 
 Arcs = {<1,2>, <1,3>, <1,4>, <2,3>, <2,4>, <3,4>, <4,3>, <3,5>, <4,5>};
 
 Capacity = [2 1 3 1 2 2 3 3 1];

 s = 1;
 t = 5;